# Solution for model P2
# Objective value = 26697430.4
vessel1 46
vessel2 57
trips(1,1) 286
trips(2,1) 37
trips(3,1) 286
trips(4,1) 249
trips(5,1) 0
trips(6,1) 10
trips(7,1) 0
trips(8,1) 0
trips(9,1) 2
trips(10,1) 0
trips(11,1) 0
trips(12,1) 0
trips(6,2) 120
trips(7,2) 0
trips(8,2) 18
trips(9,2) 428
trips(10,2) 286
trips(11,2) 0
trips(12,2) 0
dLoaded(1) 12006500
dLoaded(2) 9408600
dEmpty(1) 304500
dEmpty(2) 36000
